% MIT License
%
% Copyright (c) 2021 Johan Ludde Wessén
%
% Permission is hereby granted, free of charge, to any person obtaining 
% a copy of this software and associated documentation files (the "Software"),
% to deal in the Software without restriction, including without limitation 
% the rights to use, copy, modify, merge, publish, distribute, sublicense, 
% and/or sell copies of the Software, and to permit persons to whom the 
% Software is furnished to do so, subject to the following conditions:
% 
% The above copyright notice and this permission notice shall be included 
% in all copies or substantial portions of the Software.
%
% THE SOFTWARE IS PROVIDED "AS IS", WITHOUT WARRANTY OF ANY KIND, 
% EXPRESS OR IMPLIED, INCLUDING BUT NOT LIMITED TO THE WARRANTIES OF
% MERCHANTABILITY, FITNESS FOR A PARTICULAR PURPOSE AND
% NONINFRINGEMENT. IN NO EVENT SHALL THE AUTHORS OR COPYRIGHT HOLDERS BE
% LIABLE FOR ANY CLAIM, DAMAGES OR OTHER LIABILITY, WHETHER IN AN ACTION
% OF CONTRACT, TORT OR OTHERWISE, ARISING FROM, OUT OF OR IN CONNECTION
% WITH THE SOFTWARE OR THE USE OR OTHER DEALINGS IN THE SOFTWARE.

%-----------------------------------------------------------------------------%
% Dual Arm Multi Capacity Multi Tool Scheduling / Routing
% Assembly Configuration
% Auto Generated by python script, authored by Johan Ludde Wessen 
%-----------------------------------------------------------------------------%


task_durations = [|21, 31, 33, 29, 23, 28, 30, 25, 22, 26, 34, 32, 59, 63, 57, 61, 40, 55, 58, 53, 51, 48, 43, 44, 29, 32, 32, 30, 30,  4,  8,  5,  6,  8,  5,  6,  6,  7,  5,  5
                  |26, 35, 28, 31, 21, 25, 28, 20, 23, 24, 28, 27, 55, 52, 64, 52, 46, 59, 58, 44, 48, 59, 49, 41, 35, 29, 31, 24, 28,  6,  8,  5,  7,  7,  7,  5,  6,  7,  6,  5
                  |];


TRAY_TASKS = 1..10;
CAMERA_TASKS = 25..29;
OUTPUT_TASKS = { 24 };


empty_gripper_tasks = 30..40;


gripper_pick_tasks_orders = [|1, 13, -1
|2, 14, -1
|3, 15, -1
|4, 16, -1
|5, 17, -1
|11, 23, -1
|12, 24, -1
|];

suction_pick_tasks_orders = [|6, 25, 18, -1
|7, 26, 19, -1
|8, 27, 20, -1
|9, 28, 21, -1
|10, 29, 22, -1
|];

fixture_task_orders = [|13, 30, 18, 35, 14, 31, 19, 36, 15, 32, 20, 37, 11, -1
|16, 33, 21, 38, 17, 34, 22, 39, 23, 40, 12, -1, -1, -1
|];

